Translating instance to solver...

GLPSOL--GLPK LP/MIP Solver 5.0
Parameter(s) specified in the command line:
 --tmlim 28800 --mipgap 0.001 --write /tmp/tmpawxd7mik.glpk.raw --wglp /tmp/tmp3srhol0b.glpk.glp
 --cpxlp /tmp/tmpzvvr63ng.pyomo.lp
Reading problem data from '/tmp/tmpzvvr63ng.pyomo.lp'...
/tmp/tmpzvvr63ng.pyomo.lp:295034: warning: lower bound of variable 'x2' redefined
/tmp/tmpzvvr63ng.pyomo.lp:295034: warning: upper bound of variable 'x2' redefined
50636 rows, 25892 columns, 117101 non-zeros
25892 integer variables, 25860 of which are binary
320894 lines were read
Writing problem data to '/tmp/tmp3srhol0b.glpk.glp'...
228513 lines were written
GLPK Integer Optimizer 5.0
50636 rows, 25892 columns, 117101 non-zeros
25892 integer variables, 25860 of which are binary
Preprocessing...
190 hidden packing inequaliti(es) were detected
8110 hidden covering inequaliti(es) were detected
100 constraint coefficient(s) were reduced
29998 rows, 12201 columns, 75659 non-zeros
12201 integer variables, 12170 of which are binary
Scaling...
 A: min|aij| =  1.000e+00  max|aij| =  3.100e+01  ratio =  3.100e+01
GM: min|aij| =  4.238e-01  max|aij| =  2.360e+00  ratio =  5.568e+00
EQ: min|aij| =  2.226e-01  max|aij| =  1.000e+00  ratio =  4.492e+00
2N: min|aij| =  2.500e-01  max|aij| =  1.438e+00  ratio =  5.750e+00
Constructing initial basis...
Size of triangular part is 29998
Solving LP relaxation...
GLPK Simplex Optimizer 5.0
29998 rows, 12201 columns, 75659 non-zeros
      0: obj =   0.000000000e+00 inf =   6.262e+01 (105)
Perturbing LP to avoid stalling [271]...
   1193: obj =   4.540045706e+00 inf =   1.218e-15 (0) 3
Removing LP perturbation [2915]...
*  2915: obj =   6.117820000e-01 inf =   0.000e+00 (0) 11
OPTIMAL LP SOLUTION FOUND
Integer optimization begins...
Long-step dual simplex will be used
+  2915: mip =     not found yet >=              -inf        (1; 0)
+  5222: mip =     not found yet >=   6.117820000e-01        (23; 1)
+  5806: mip =     not found yet >=   6.117820000e-01        (35; 1)
+  5945: mip =     not found yet >=   6.117820000e-01        (51; 1)
+  6373: mip =     not found yet >=   6.117820000e-01        (86; 1)
+  6940: mip =     not found yet >=   6.117820000e-01        (142; 1)
+  8463: mip =     not found yet >=   6.117820000e-01        (158; 2)
+  8885: mip =     not found yet >=   6.117820000e-01        (167; 2)
+  9361: mip =     not found yet >=   6.117820000e-01        (190; 2)
+ 10295: mip =     not found yet >=   6.117820000e-01        (214; 3)
+ 10861: mip =     not found yet >=   6.117820000e-01        (225; 3)
+ 11326: mip =     not found yet >=   6.117820000e-01        (251; 3)
+ 11373: >>>>>   2.123564000e+00 >=   6.117820000e-01  71.2% (271; 3)
Time used: 60.0 secs.  Memory used: 44.3 Mb.
+ 12840: mip =   2.123564000e+00 >=   6.117820000e-01  71.2% (197; 190)
+ 14086: mip =   2.123564000e+00 >=   6.117820000e-01  71.2% (208; 191)
+ 14205: mip =   2.123564000e+00 >=   6.117820000e-01  71.2% (216; 191)
+ 15337: mip =   2.123564000e+00 >=   6.117820000e-01  71.2% (227; 192)
+ 15434: mip =   2.123564000e+00 >=   6.117820000e-01  71.2% (232; 192)
+ 16027: mip =   2.123564000e+00 >=   6.117820000e-01  71.2% (243; 192)
+ 18061: mip =   2.123564000e+00 >=   6.117820000e-01  71.2% (264; 195)
+ 22229: mip =   2.123564000e+00 >=   6.117820000e-01  71.2% (293; 198)
+ 24161: mip =   2.123564000e+00 >=   6.117820000e-01  71.2% (306; 199)
+ 26101: mip =   2.123564000e+00 >=   6.117820000e-01  71.2% (352; 201)
+ 28659: mip =   2.123564000e+00 >=   6.117820000e-01  71.2% (376; 203)
Time used: 120.4 secs.  Memory used: 54.9 Mb.
+ 29241: mip =   2.123564000e+00 >=   6.117820000e-01  71.2% (384; 203)
+ 31568: mip =   2.123564000e+00 >=   6.117820000e-01  71.2% (406; 205)
+ 33459: mip =   2.123564000e+00 >=   6.117820000e-01  71.2% (429; 206)
+ 34549: mip =   2.123564000e+00 >=   6.117820000e-01  71.2% (454; 207)
+ 35877: mip =   2.123564000e+00 >=   6.117820000e-01  71.2% (463; 208)
+ 38304: mip =   2.123564000e+00 >=   6.117820000e-01  71.2% (481; 210)
+ 40740: mip =   2.123564000e+00 >=   6.117820000e-01  71.2% (509; 212)
+ 43314: mip =   2.123564000e+00 >=   6.117820000e-01  71.2% (523; 214)
+ 45555: mip =   2.123564000e+00 >=   6.117820000e-01  71.2% (542; 215)
+ 46966: mip =   2.123564000e+00 >=   6.117820000e-01  71.2% (564; 216)
+ 48028: mip =   2.123564000e+00 >=   6.117820000e-01  71.2% (607; 217)
+ 49151: mip =   2.123564000e+00 >=   6.117820000e-01  71.2% (615; 218)
Time used: 180.4 secs.  Memory used: 67.8 Mb.
+ 49321: mip =   2.123564000e+00 >=   6.117820000e-01  71.2% (623; 218)
+ 50784: mip =   2.123564000e+00 >=   6.117820000e-01  71.2% (653; 219)
+ 52516: mip =   2.123564000e+00 >=   6.117820000e-01  71.2% (662; 220)
+ 54670: mip =   2.123564000e+00 >=   6.117820000e-01  71.2% (700; 222)
+ 57445: mip =   2.123564000e+00 >=   6.118778018e-01  71.2% (724; 224)
+ 60740: mip =   2.123564000e+00 >=   6.219801941e-01  70.7% (750; 228)
+ 61169: mip =   2.123564000e+00 >=   6.219801941e-01  70.7% (784; 228)
+ 62722: mip =   2.123564000e+00 >=   6.231543761e-01  70.7% (798; 230)
+ 63524: mip =   2.123564000e+00 >=   6.250050957e-01  70.6% (813; 231)
+ 66206: mip =   2.123564000e+00 >=   6.251171808e-01  70.6% (855; 233)
+ 68541: mip =   2.123564000e+00 >=   6.263648571e-01  70.5% (895; 235)
+ 68741: >>>>>   1.061782000e+00 >=   6.264871179e-01  41.0% (899; 235)
Time used: 240.6 secs.  Memory used: 80.0 Mb.
+ 72779: mip =   1.061782000e+00 >=   6.290280248e-01  40.8% (500; 1015)
+ 75004: mip =   1.061782000e+00 >=   6.316119565e-01  40.5% (519; 1020)
+ 77137: mip =   1.061782000e+00 >=   6.319173111e-01  40.5% (557; 1025)
+ 79597: mip =   1.061782000e+00 >=   6.338216983e-01  40.3% (584; 1033)
+ 81611: mip =   1.061782000e+00 >=   6.342598602e-01  40.3% (608; 1036)
+ 86838: mip =   1.061782000e+00 >=   6.387962339e-01  39.8% (612; 1051)
+ 90423: mip =   1.061782000e+00 >=   6.471370330e-01  39.1% (610; 1075)
+ 92644: mip =   1.061782000e+00 >=   6.500183750e-01  38.8% (628; 1088)
+ 95347: mip =   1.061782000e+00 >=   6.547960894e-01  38.3% (645; 1109)
+ 99151: mip =   1.061782000e+00 >=   6.706765362e-01  36.8% (629; 1142)
+101915: mip =   1.061782000e+00 >=   6.731456364e-01  36.6% (649; 1149)
+103913: mip =   1.061782000e+00 >=   6.731456364e-01  36.6% (673; 1159)
Time used: 300.6 secs.  Memory used: 91.9 Mb.
+105397: mip =   1.061782000e+00 >=   6.731456364e-01  36.6% (708; 1165)
+106950: mip =   1.061782000e+00 >=   6.731456364e-01  36.6% (720; 1176)
+107862: mip =   1.061782000e+00 >=   6.731456364e-01  36.6% (743; 1178)
+110578: mip =   1.061782000e+00 >=   6.760677143e-01  36.3% (757; 1195)
+112738: mip =   1.061782000e+00 >=   6.828346316e-01  35.7% (766; 1215)
+116337: mip =   1.061782000e+00 >=   6.974962857e-01  34.3% (770; 1240)
+119148: mip =   1.061782000e+00 >=   7.034263571e-01  33.8% (774; 1269)
+121472: mip =   1.061782000e+00 >=   7.137456667e-01  32.8% (790; 1287)
+124095: mip =   1.061782000e+00 >=   7.229987300e-01  31.9% (796; 1313)
+126569: mip =   1.061782000e+00 >=   7.330046753e-01  31.0% (798; 1336)
+128288: mip =   1.061782000e+00 >=   7.362920526e-01  30.7% (811; 1347)
+130910: mip =   1.061782000e+00 >=   7.577226667e-01  28.6% (813; 1384)
Time used: 360.7 secs.  Memory used: 99.9 Mb.
+132930: mip =   1.061782000e+00 >=   7.647275000e-01  28.0% (843; 1415)
+134862: mip =   1.061782000e+00 >=   7.647275000e-01  28.0% (857; 1450)
+136253: mip =   1.061782000e+00 >=   7.708003793e-01  27.4% (878; 1468)
+140227: mip =   1.061782000e+00 >=   7.953166000e-01  25.1% (848; 1523)
+142336: mip =   1.061782000e+00 >=   8.157093333e-01  23.2% (846; 1554)
+144850: mip =   1.061782000e+00 >=   8.157093333e-01  23.2% (841; 1622)
+148111: mip =   1.061782000e+00 >=   8.412002500e-01  20.8% (816; 1680)
+151264: mip =   1.061782000e+00 >=   8.666911667e-01  18.4% (753; 1820)
+153685: mip =   1.061782000e+00 >=   8.899934392e-01  16.2% (718; 1889)
+155224: mip =   1.061782000e+00 >=   8.996040000e-01  15.3% (722; 1910)
+156968: mip =   1.061782000e+00 >=   9.176730000e-01  13.6% (710; 1947)
+158890: mip =   1.061782000e+00 >=   9.176730000e-01  13.6% (683; 2090)
Time used: 420.7 secs.  Memory used: 103.7 Mb.
+160215: mip =   1.061782000e+00 >=   9.176730000e-01  13.6% (696; 2128)
+163039: mip =   1.061782000e+00 >=   9.176730000e-01  13.6% (673; 2244)
+165969: mip =   1.061782000e+00 >=   9.176730000e-01  13.6% (659; 2369)
+168629: mip =   1.061782000e+00 >=   9.176730000e-01  13.6% (617; 2562)
+170937: mip =   1.061782000e+00 >=   9.176730000e-01  13.6% (612; 2647)
+174095: mip =   1.061782000e+00 >=   9.374079032e-01  11.7% (525; 2911)
+176597: mip =   1.061782000e+00 >=   9.686548333e-01   8.8% (355; 3306)
+178270: mip =   1.061782000e+00 >=   9.732895455e-01   8.3% (287; 3493)
+180247: mip =   1.061782000e+00 >=   9.900643180e-01   6.8% (205; 3769)
+181687: mip =   1.061782000e+00 >=   1.019636667e+00   4.0% (101; 4355)
+182305: mip =   1.061782000e+00 >=   1.060912143e+00 < 0.1% (3; 4955)
RELATIVE MIP GAP TOLERANCE REACHED; SEARCH TERMINATED
Time used:   471.5 secs
Memory used: 110.9 Mb (116331507 bytes)
Writing MIP solution to '/tmp/tmpawxd7mik.glpk.raw'...
76537 lines were written

Results:

E = 1.061782 mA
C = 33.0 points
C ~= 13.200000000000001 km^2

Minimum Epsilon for this instance = 9
Maximum Epsilon for this instance = 98
Current Epsilon = 18

Instance Maximum Epsilon Preprocessing Time: 0.003406524658203125 s

Time in solver (for this epsilon): 471.7121467590332 s
Elapsed time (for this epsilon): 473.2839756011963 s


Total elapsed time since execution of first epsilon: 35232.51755070686 s


Updated solution vectors:
sol_E = [0.611782,1.061782]
sol_C = [12.0,33.0]
sol_eps = [9,18]
